NAME : portcgen-28-1
COMMENT : portcgen N=28, seed=1
TYPE : TSP
DIMENSION : 28
EDGE_WEIGHT_TYPE : EUC_2D
NODE_COORD_SECTION
1 -127308 -259758
2 -92273 -108200
3 -41337 34393
4 -14213 -81801
5 -305511 90801
6 -124672 -199113
7 -260824 73574
8 169708 207738
9 212923 -108244
10 -111883 -115198
11 34428 90195
12 -107276 -32181
13 22131 -6778
14 -221948 338440
15 -69734 64056
16 -93125 -1119
17 -32383 11702
18 -173091 182961
19 2040 224137
20 6430 -239450
21 83280 168227
22 11523 77965
23 246180 14621
24 131680 -42003
25 102123 163630
26 18059 -294207
27 -257011 27721
28 -68197 318313
